\ Model (null)_copy
\ LP format - for model browsing. Use MPS format to capture full model detail.
Minimize
  - C0 + 0 C1 + 0.7054878004634761 C2 + 1.248848243877974 C3
   + 3.182655822634201 C4 + 0 C5 + 0 C6 + 214.2890674857356 C7
Subject To
 R0: - C0 + 0.7054878004634761 C2 + 1.248848243877974 C3
   + 3.182655822634201 C4 + 214.2890674857356 C7 >= -250
Bounds
 C0 free
 C1 free
 C2 free
 C3 free
 C4 free
 C5 free
 C6 free
End
